n_machines = 10;
n_resources = 15;
n_jobs = 123;
horizon = 6199;
LB = 991;
n_jobs_per_resource = [8, 5, 9, 3, 6, 19, 12, 1, 3, 14, 17, 12, 2, 6, 6];
duration = [49, 6, 48, 3, 14, 76, 10, 71, 58, 43, 71, 42, 96, 80, 57, 47, 70, 39, 55, 40, 14, 26, 27, 30, 12, 92, 86, 95, 90, 17, 25, 7, 63, 49, 28, 61, 28, 74, 54, 38, 87, 80, 24, 58, 43, 79, 83, 88, 16, 31, 21, 41, 36, 97, 8, 49, 72, 66, 99, 80, 59, 1, 26, 24, 80, 2, 17, 44, 26, 54, 56, 99, 80, 91, 86, 35, 51, 60, 24, 71, 81, 11, 26, 64, 44, 79, 89, 23, 20, 24, 44, 94, 38, 57, 52, 2, 86, 17, 98, 88, 39, 71, 45, 71, 51, 25, 70, 61, 30, 33, 49, 20, 73, 85, 17, 1, 28, 72, 35, 27, 98, 52, 74]